c [-tl=1800000, -p=4, instances/xcsp3/FrequencyAllocationXCSP3-m2-celar_50_7_10_5_0.800000_0.xml]
c 4 solvers in parallel
c parse instance...
c solve instance...
o 17752 
o 17724 
o 17584 
o 17556 
o 17500 
o 17472 
o 17416 
o 16912 
o 16884 
o 16856 
o 16744 
o 16632 
o 16464 
o 16436 
o 16380 
o 16324 
o 16268 
s SATISFIABLE
v <instantiation>
v 	<list>T[0] T[1] T[2] T[3] T[4] T[5] T[6] T[7] T[8] T[9] T[10] T[11] T[12] T[13] T[14] T[15] T[16] T[17] T[18] T[19] T[20] T[21] T[22] T[23] T[24] T[25] T[26] T[27] T[28] T[29] T[30] T[31] T[32] T[33] T[34] T[35] T[36] T[37] T[38] T[39] T[40] T[41] T[42] T[43] T[44] T[45] T[46] T[47] T[48] T[49] R[0] R[1] R[2] R[3] R[4] R[5] R[6] R[7] R[8] R[9] R[10] R[11] R[12] R[13] R[14] R[15] R[16] R[17] R[18] R[19] R[20] R[21] R[22] R[23] R[24] R[25] R[26] R[27] R[28] R[29] R[30] R[31] R[32] R[33] R[34] R[35] R[36] R[37] R[38] R[39] R[40] R[41] R[42] R[43] R[44] R[45] R[46] R[47] R[48] R[49] </list>
v 	<values>56 14 14 70 294 252 126 112 280 14 98 56 56 42 70 56 56 56 84 294 14 14 308 70 14 112 84 252 14 56 14 14 70 70 14 14 28 252 14 14 56 56 56 56 252 14 252 252 14 14 294 252 252 308 56 14 364 350 42 252 336 294 294 280 308 294 294 294 322 56 252 252 70 308 252 350 322 14 252 294 252 252 308 308 252 252 266 14 252 252 294 294 294 294 14 252 14 14 252 252 </values>
v </instantiation>
real 1800.84
user 7104.65
sys 85.09
